[AdminPlayerList]
ColumnHeadings="("Imię gracza","Unikatowe ID","IP")"

[Browser_AddBuddy]
AddBuddyDesc.Caption=Dodaj znajomego
BuddyEntryBox.Caption=Nazwa znajomego:
CancelButton.Caption=ANULUJ
OkButton.Caption=OK

[Browser_BuddyList]
ColumnHeadings="("Nazwa znajomego")"

[Browser_IRC]
SystemLabel=System
LeaveChannelCaption=OPUŚĆ KANAŁ
LeavePrivateCaptionHead=ZAMKNIJ
ChooseNewNickText=Wybierz nowy nick na czacie
MyBackButton.Caption=Wstecz
MyChangeNickButton.Caption=ZMIEŃ NICKA

[Browser_IconKey]
DialogText.Caption=Klawisz ikony serwera
OkButton.Caption=OK

[Browser_MOTD]
VersionString=wer.
MyBackButton.Caption=WSTECZ
MyRefreshButton.Caption=ODŚWIEŻ
MyUpgradeButton.Caption=AKTUALIZUJ

[Browser_OpenIP]
CancelButton.Caption=ANULUJ
IpEntryBox.Caption=Adres IP        
OkButton.Caption=OK
OpenIPDesc.Caption=Dodaj nowy adres IP

[Browser_Page]
StartQueryString=Kwerendowanie serwera głównego
AuthFailString=Błąd weryfikacji
ConnFailString=Połączenie nieudane - ponawiam
ConnTimeoutString=Przekroczono limit czasowy dla połączenia
QueryCompleteString=Zakończono wyszukiwanie!
RefreshCompleteString=Odświeżenie zakończone!
ReadyString=Gotowy

[Browser_PlayersList]
ColumnHeadings="("Imię gracza","Wynik","ID Statystyk","Ping")"

[Browser_Prefs]
ViewStatsStrings[0]=Dowolny serwer
ViewStatsStrings[1]=Tylko serwer ze statystykami
ViewStatsStrings[2]=Bez serwerów ze statystykami
MutatorModeStrings[0]=Dowolny mutator
MutatorModeStrings[1]=Bez mutatorów
MutatorModeStrings[2]=Ten mutator
MutatorModeStrings[3]=Nie ten mutator
WeaponStayStrings[0]=Dowolny serwer
WeaponStayStrings[1]=Tylko serwery, na których zostaje broń
WeaponStayStrings[2]=Bez serwerów, na których zostaje broń
TranslocatorStrings[0]=Dowolny serwer
TranslocatorStrings[1]=Tylko serwery z teleportacją
TranslocatorStrings[2]=Bez serwerów z teleportacją
CustomQuery.Caption=Zapytanie własne
FilterTitle.Caption=Opcje filtrowania serwera:
MaxGamespeed.Caption=Maks.
MinGamespeed.Caption=Minimalna prędkość gry
MutatorModeCombo.Caption=Mutatory
MyBackButton.Caption=Wstecz
MyKeyButton.Caption=KLAWISZ IKONY
NoBotServersCheckBox.Caption=Bez serwerów z botami
NoEmptyCheckBox.Caption=Bez pustych serwerów
NoFullCheckBox.Caption=Bez zapełnionych serwerów
NoPasswdCheckBox.Caption=Bez haseł
OnlyStandardCheckBox.Caption=Tylko standardowe serwery
StatsViewCombo.Caption=Serwery ze statystykami
TranslocatorCombo.Caption=Translokator
WeaponStayCombo.Caption=Zostaje broń

[Browser_RulesList]
TrueString=Włączone
FalseString=Wyłączone
ServerModeString=Tryb serwera
DedicatedString=Dedykowany
NonDedicatedString=Niededykowany
AdminNameString=Admin serwera
AdminEmailString=Email admina
PasswordString=Wymaga hasła
GameStatsString=Statystyki UT2004
GameSpeedString=Tempo gry
MutatorString=Mutator
BalanceTeamsString=Zrównoważ drużyny botami
PlayersBalanceTeamsString=Zrównoważ drużyny                
FriendlyFireString=Przyjacielski ostrzał
GoalScoreString=Limit punktowy
TimeLimitString=Limit czasowy
MinPlayersString=Min. graczy (boty)
TranslocatorString=Translokator
WeaponStayString=Broń na mapie
ColumnHeadings="("Ustawienie","Wartość")"

[Browser_ServerListPageBase]
AddFavoriteButton.Caption=DODAJ ULUBIONY
BackButton.Caption=WSTECZ
JoinButton.Caption=DOŁĄCZ
RefreshButton.Caption=ODŚWIEŻ LISTĘ
SpectateButton.Caption=OGLĄDAJ

[Browser_ServerListPageBuddy]
AddBuddyCaption=DODAJ ZNAJOMEGO
RemoveBuddyCaption=USUŃ ZNAJOMEGO

[Browser_ServerListPageFavorites]
RemoveFavoriteCaption=USUŃ Z ULUBIONYCH
AddIPCaption=DODAJ IP
RePingCaption=RE-PINGUJ LISTĘ

[Browser_ServerListPageMS]
QueryFinHead=Zapytanie zakończone! Otrzymano:
QueryFinTail= serw.
PingRecvString=Pingowanie serwerów
MustUpgradeString=Dostępna nowa aktualizacja. Odśwież stronę wiadomości.
RefreshFinHead=Pingowanie zakończone!
RefreshFinMid= Serw.,
RefreshFinTail= gr.
RePingServersCaption=RE-PINGUJ LISTĘ
RefreshCaption=ODŚWIEŻ LISTĘ

[Browser_ServerListPageMSCustom]
MyGameTypeLabel.Caption=Typ gry

[Browser_ServersList]
IconDescriptions="("Hasło","Ze statystykami","Najn. wersja","Nasłuchowy","Instagib","Standardowy","UT Classic")"
ColumnHeadings="(,"Nazwa serwera","Mapa","Gracze","Ping")"

[DefaultCrosshairs]
Crosshair="((FriendlyName="Krzyż (1)"),(FriendlyName="Krzyż (2)"),(FriendlyName="Krzyż (3)"),(FriendlyName="Krzyż (4)"),(FriendlyName="Krzyż (5)"),(FriendlyName="Kropka"),(FriendlyName="Strzałka"),(FriendlyName="Triada (1)"),(FriendlyName="Triada (2)"),(FriendlyName="Triada (3)"),(FriendlyName="Hasz (1)"),(FriendlyName="Hasz (2)"),(FriendlyName="Okrąg (1)"),(FriendlyName="Okrąg (2)"))"

[ExtendedConsole]
AddedCurrentHead=Dodano serwer:
AddedCurrentTail=do ulubionych!
ServerFullMsg=Serwer jest pełny
SMStateName[0]=Menu rozmów
SMStateName[1]=Czat głosowy
SMStateName[2]=Przyjąłem
SMStateName[3]=Przyjacielski ostrzał
SMStateName[4]=Porządek
SMStateName[5]=Inne
SMStateName[6]=Drwina
SMStateName[7]=Animacja drwiny
SMStateName[8]=Wybór gracza
SMChannelOptions[0]=Dołącz
SMChannelOptions[1]=Opuść
SMChannelOptions[2]=Rozmawiaj
SMAllString=[WSZYSCY]
SMMoreString=[WIĘCEJ]

[GUIController]
DesignModeHints="((Key=" Klawisz",Description="                                Opis"),(Key=" (F1)",Description="                                Obejrzyj ekran pomocy"),(Key=" Ctrl + Alt + D",Description="                      Przełącz tryb projektowania"),(Key=" Ctrl + Alt + E",Description="                      Przełącz tryb edycji własności"),(Key=" [Ctrl +] H",Description="                          Przełącz informacje aktywne/skupione"),(Key=" [Ctrl +] I",Description="                          Przełącz tryb interaktywny"),(Key=" [Ctrl +] P",Description="                          Przełącz pełne łańcuchy PosiadaczaMenu na aktywne/skupione"),(Key=" [Ctrl +] C",Description="                          Skopiuj pozycję PoruszanieSterowanie ze schowka"),(Key=" [Ctrl +] X",Description="                          Kopiuj PoruszanieSterowanie do schowka"),(Key=" [Ctrl +] U",Description="                          Odśwież okno właściwości w projektancie"),(Key=" [Ctrl +] Góra/Dół/Lewo/Prawo",Description="         Repozycjonuj PoruszanieSterowanie za pomocą klawiszy strzałek"),(Key=" [Ctrl +] +/-",Description="                        Zmień wielkość PoruszaniaSterowania w pionie"),(Key=" [Ctrl +] Num+/Num-",Description="                  Zmień wielkość wybranego komponentu w poziomie"),(Key=" [Ctrl +] KółkoWGórę",Description="                    Ustaw PoruszanieSterowanie na właściciela menu PoruszaniaSterowania"),(Key=" [Ctrl +] KółkoWDół",Description="                  Ustaw PoruszanieSterowanie na skupioną kontrolę PoruszaniaSterowania"),(Key=" [(Ctrl + Alt) +] MyszX/Y+LPM",Description="    Repozycjonuj PoruszanieSterowanie za pomocą myszy"),(Key=" (Shift)",Description="                             Ukryj wszystkie wskaźniki trybu projektowania"),(Key=" (Ctrl + Alt)",Description="                        Obejrzyj łańcuch skupienia"),(Key=" [Ctrl +] Tab",Description="                        Wybierz nowe PoruszanieSterowanie"),(Key=" [Ctrl +] LPM",Description="                     Wybierz nowe PoruszanieSterowanie"))"

[GUIQuestionPage]
ButtonNames="("Ok","Anuluj","Ponów","Kontynuuj","Tak","Nie","Przerwij","Ignoruj")"

[HudBTeamDeathMatch]
LinkEstablishedMessage=POŁĄCZENIE NAWIĄZANE

[HudBase]
InstructionFontName=UT2003Fonts.jFontMono800x600
LevelActionLoading=WCZYTYWANIE…
LevelActionPaused=PAUZA
LevelActionFontName=UT2003Fonts.FontMedium
WonMatchPostFix= wygrywa mecz!
WaitingToSpawn=Wciśnij [Strzał], by dołączyć do meczu!
AtMenus=Wciśnij [ESC], by zamknąć menu
YouveWonTheMatch=Wygrywasz mecz!
YouveLostTheMatch=Przegrywasz mecz.
NowViewing=Oglądasz teraz:
ScoreText=Punkty
InitialViewingString=Wciśnij Strzał, by obejrzeć innego gracza
ProgressFontName=UT2003Fonts.FontMedium
FontArrayNames[0]=UT2003Fonts.FontEurostile37
FontArrayNames[1]=UT2003Fonts.FontEurostile29
FontArrayNames[2]=UT2003Fonts.FontEurostile24
FontArrayNames[3]=UT2003Fonts.FontEurostile21
FontArrayNames[4]=UT2003Fonts.FontEurostile17
FontArrayNames[5]=UT2003Fonts.FontEurostile14
FontArrayNames[6]=UT2003Fonts.FontEurostile12
FontArrayNames[7]=UT2003Fonts.FontEurostile9
FontArrayNames[8]=UT2003Fonts.FontSmallText

[HudCTeamDeathMatch]
LinkEstablishedMessage=POŁĄCZENIE NAWIĄZANE

[IRCLink]
InvalidAddressText=Nieprawidłowy adres serwera. Kończenie operacji.
ErrorBindingText=Błąd podczas alokacji lokalnych portów. Kończenie operacji.
ResolveFailedText=Błąd podczas wyszukiwania adresu serwera. Kończenie operacji.
ConnectedText=Połączony.
ConnectingToText=Łączenie z
TimeOutError=Przekroczono limit czasowy połączenia.
InviteString=zaprasza cię do
NickInUseText=Ktoś już używa wybranego nicka
NickInvalidText=Wybrany nick jest nieprawidłowy

[IRC_NewNick]
NewNickEntry.Caption=Nowy nick
OkButton.Caption=OK

[IRC_Page]
HasLeftText=opuszcza
HasJoinedText=dołącza
WasKickedByText=wykopany przez
NowKnownAsText=zmienia imię na
QuitText=Wyjście
SetsModeText=ustawia tryb
NewTopicText=Temat

[IRC_System]
NotInAChannelText=Nie jesteś na kanale!
KickedFromText=Zostałeś wykopany z
ByText=przez                
IsAwayText=jest niedostępny
ConnectText=POŁĄCZ
DisconnectText=ODŁĄCZ
MyChannelLabel.Caption=Kanał
MyJoinChannelButton.Caption=DOŁĄCZ DO KANAŁU
MyRemoveChannelButton.Caption=USUŃ KANAŁ
MyRemoveServerButton.Caption=USUŃ SERWER
MyServerLabel.Caption=Serwer                

[JoeTest]
TestButton1.Caption=Zamknij okno
TitleText.Caption=GUI fascynującego testu Joe

[JoeTestPanelA]
TestButtonA.Caption=Wow
TestButtonB.Caption=Kurczę

[ScoreBoardDeathMatch]
RankText=POZYCJA
PlayerText=GRACZ
PointsText=PUNKTY
TimeText=CZAS:
PingText=PING:
PLText=P/L:
DeathsText=ŚMIERCI
AdminText=ADMIN
NetText=SIEĆ
FooterText=Czas:
MatchIDText=ID statystyk meczowych UT2004
OutText=WYLOT
OutFireText=   WYLECIAŁEŚ. Strzel, by obejrzeć innych graczy.
ReadyText=GOTÓW
NotReadyText=NIE GOTÓW
SkillLevel[0]=POCZĄTKUJĄCY
SkillLevel[1]=ŚREDNI
SkillLevel[2]=DOŚWIADCZONY
SkillLevel[3]=SPRAWNY
SkillLevel[4]=ZNAKOMITY
SkillLevel[5]=MISTRZOWSKI
SkillLevel[6]=NIELUDZKI
SkillLevel[7]=BOSKI
MaxLives=MAKS. ODNOWIEŃ:
FragLimit=LIMIT FRAGÓW:
FPH=P/G
GameType=GRACZ
MapName=" na mapie "
Restart=   Nie żyjesz. Wciśnij Strzał, by się odnowić!
Continue= Wciśnij [Strzał], by kontynuować!
Ended=Mecz się zakończył.
TimeLimit=POZOSTAŁY CZAS:
Spacer=        

[ScoreBoardTeamDeathMatch]
FragLimit=LIMIT PUNKTÓW:

[ServerBrowser]
MutantTypeName=Mutant
InvasionTypeName=Inwazja
LMSTypeName=Ostatni żywy
MutantType=xGraMutantów
InvasionType=Inwazja
LMSType=xOstatniWśródŻywych
MyBRServerListPage.PageCaption=Bombowy mecz
MyBuddiesPage.PageCaption=Kumple
MyCTFServerListPage.PageCaption=CTF
MyCustomServerListPage.PageCaption=Własny
MyDMServerListPage.PageCaption=DM
MyDomServerListPage.PageCaption=Podw. Dom
MyFavoritesPage.PageCaption=Ulubione
MyIRCPage.PageCaption=Czat
MyLANPage.PageCaption=LAN
MyMOTDPage.PageCaption=Wiadomości
MyPrefsPage.PageCaption=Filtr
MyTDMServerListPage.PageCaption=DM drużynowy
ServerBrowserHeader.Caption=Lista serwerów

[Tab_AdminPlayerList]
AdminPlayerBan.Caption=Banuj
AdminPlayerBan.Hint=Zbanuj tego gracza
AdminPlayerKick.Caption=Wykop
AdminPlayerKick.Hint=Wykop tego gracza

[Tab_AudioSettings]
AudioModes[0]=Dźwięk 3D programowy
AudioModes[1]=Dźwięk 3D sprzętowy
AudioModes[2]=Dźwięk 3D sprzętowy + EAX
AudioModes[3]=Tryb bezpieczny
VoiceModes[0]=Wszystko
VoiceModes[1]=Bez autoobelg
VoiceModes[2]=Bez obelg
VoiceModes[3]=Brak
AnnounceModes[0]=Brak
AnnounceModes[1]=Minimalne
AnnounceModes[2]=Wszystkie
AudioAnnounce.Caption=Powiadomienia
AudioAnnounce.Hint=Umożliwia zdefiniowanie powiadomień wyświetlanych w trakcie gry.
AudioAnnouncerPack.Caption=Głos prezentera
AudioAnnouncerPack.Hint=Wybierz głos prezentera na dzisiejszą grę.
AudioAutoTaunt.Caption=Autoobelgi
AudioAutoTaunt.Hint=Ta opcja umożliwia automatyczne obrażanie rywali.
AudioEffectsVolumeLabel.Caption=Głośność efektów
AudioEffectsVolumeSlider.Hint=Zmienia głośność wszystkich efektów dźwiękowych w grze.
AudioLowDetail.Caption=Niskie detale dźwięku
AudioLowDetail.Hint=Umożliwia użycie dźwięku niskiej jakości.
AudioMatureTaunts.Caption=Bluzgi
AudioMatureTaunts.Hint=Aktywuje najcięższe obelgi.
AudioMessageBeep.Caption=Sygnał wiadomości
AudioMessageBeep.Hint=Umożliwia włączenie sygnału dźwiękowego, które zostanie odtworzone po otrzymaniu wiadomości tekstowej.
AudioMode.Caption=Tryb audio
AudioMode.Hint=Umożliwia zmianę trybu audio.
AudioMusicVolumeLabel.Caption=Głośność muzyki
AudioMusicVolumeSlider.Hint=Zmienia głośność muzyki w tle.
AudioPlayVoices.Caption=Odtwarzaj kwestie mówione
AudioPlayVoices.Hint=Umożliwia zdefiniowanie typu kwestii mówionych, które mają być odtwarzane.
AudioReverseStereo.Caption=Zamiana kanałów
AudioReverseStereo.Hint=Umożliwia zamianę kanałów.
AudioVoiceVolumeLabel.Caption=Głośność prezentera
AudioVoiceVolumeSlider.Hint=Zmienia głośność wszystkich komunikatów głosowych w grze.

[Tab_ControlSettings]
Bindings="((KeyLabel="Ruch"),(KeyLabel="Do przodu"),(KeyLabel="Do tyłu"),(KeyLabel="Krok w lewo"),(KeyLabel="Krok w prawo"),(KeyLabel="Skok"),(KeyLabel="Chodzenie"),(KeyLabel="Przykucnięcie"),(KeyLabel="Włącz/wyłącz chodzenie na boki"),(KeyLabel="Patrzenie"),(KeyLabel="Obrót w lewo"),(KeyLabel="Obrót w prawo"),(KeyLabel="Spojrzenie w górę"),(KeyLabel="Spojrzenie w dół"),(KeyLabel="Wyśrodkowanie widoku"),(KeyLabel="Broń"),(KeyLabel="Strzał"),(KeyLabel="Strzał alternatywny"),(KeyLabel="Rzuć broń"),(KeyLabel="Najlepsza broń"),(KeyLabel="Następna broń"),(KeyLabel="Poprzednia broń"),(KeyLabel="Ostatnia broń"),(KeyLabel="Wybór broni"),(KeyLabel="Super broń"),(KeyLabel="Karabin tarczowy"),(KeyLabel="Karabin szturmowy"),(KeyLabel="Karabin biologiczny"),(KeyLabel="Karabin ASMD"),(KeyLabel="Spawarka"),(KeyLabel="Działko"),(KeyLabel="Flak"),(KeyLabel="Wyrzutnia rakiet"),(KeyLabel="Porażacz"),(KeyLabel="Translokator"),(KeyLabel="Komunikacja"),(KeyLabel="Mów"),(KeyLabel="Mów drużyna"),(KeyLabel="Menu głosu"),(KeyLabel="Drwiny"),(KeyLabel="Ruch biodrami"),(KeyLabel="Klepnięcie"),(KeyLabel="Poderżnięcie gardła"),(KeyLabel="HUD"),(KeyLabel="Rozszerz HUD"),(KeyLabel="Zmniejsz HUD"),(KeyLabel="Inne"),(KeyLabel="Pauza"),(KeyLabel="Zrzut ekranu"),(KeyLabel="Menu"),(KeyLabel="Wyniki"),(KeyLabel="Przełącz wyniki"),(KeyLabel="Czat"),(KeyLabel="Info o serwerze"))"
Labels="("Ruch","Do przodu","Do tyłu","Krok w lewo","Krok w prawo","Skok","Chodzenie","Przykucnięcie","Włącz/wyłącz chodzenie na boki","Patrzenie","Obrót w lewo","Obrót w prawo","Spojrzenie w górę","Spojrzenie w dół","Wyśrodkowanie widoku","Broń","Strzał","Strzał alternatywny","Rzuć broń","Najlepsza broń","Następna broń","Poprzednia broń","Ostatnia broń","Wybór broni","Super broń","Karabin tarczowy","Karabin szturmowy","Karabin biologiczny","Karabin ASMD","Spawarka","Działko","Flak","Wyrzutnia rakiet","Porażacz","Translokator","Komunikacja","Mów","Mów drużyna","Menu głosu","Drwiny","Ruch biodrami","Klepnięcie","Poderżnięcie gardła","HUD","Rozszerz HUD","Zmniejsz HUD","Inne","Pauza","Zrzut ekranu","Menu","Wyniki","Przełącz wyniki","Czat","Info o serwerze")"
Header=[
Footer=] Wykonaj tę czynność
KeyConfigAliasLabel.Caption=Akcja
KeyConfigAliasLabel2.Caption=Klawisz 1
KeyConfigAliasLabel3.Caption=Klawisz 2
KeyConfigKeyList.Hint=Wybierz sterowanie do skonfigurowania
KeyResetButton.Caption=RESETUJ
KeyResetButton.Hint=Resetuj klawisze do wartości domyślnych

[Tab_DetailSettings]
DetailLevels[0]=Najniższy
DetailLevels[1]=Niższy
DetailLevels[2]=Niski                
DetailLevels[3]=Normalny
DetailLevels[4]=Wysoki
DetailLevels[5]=Wyższy
DetailLevels[6]=Najwyższy
DetailActorDetail.Caption=Detale świata
DetailActorDetail.Hint=Umożliwia zdefiniowanie poziomu detali świata (geometria i efekty).
DetailBlob.Caption=Użyj okrągłych cieni
DetailBlob.Hint=Włącza okrągłe cienie. Zalecane użytkownikom ze sprzętem niższej wydajności.
DetailCharacterDetail.Caption=Detale postaci
DetailCharacterDetail.Hint=Umożliwia zdefiniowanie szczegółowości postaci.
DetailCharacterShadows.Caption=Cienie postaci
DetailCharacterShadows.Hint=Włącza cienie postaci.
DetailCoronas.Caption=Poświata
DetailCoronas.Hint=Włącza poświatę.
DetailDecalStay.Caption=Wyśw. śladów walki
DetailDecalStay.Hint=Determinuje czas wyświetlania efektów, takich jak krew i ślady po pociskach.
DetailDecals.Caption=Ślady walki
DetailDecals.Hint=Włącza wyświetlanie śladów takich jak krew i przestrzeliny po pociskach.
DetailDecoLayers.Caption=Rośliny
DetailDecoLayers.Hint=Włącza trawę i inne elementy wystroju roślinnego.
DetailDetailTextures.Caption=Szczegółowe tekstury
DetailDetailTextures.Hint=Włącza szczegółowe tekstury
DetailDynamicLighting.Caption=Dynamiczne oświetlenie
DetailDynamicLighting.Hint=Włącza dynamiczne oświetlenie.
DetailPhysics.Caption=Detale fizyki
DetailPhysics.Hint=Umożliwia zmianę poziomu symulacyjnego fizyki gry.
DetailProjectors.Caption=Projektory
DetailProjectors.Hint=Włącza projektory.
DetailTrilinear.Caption=Filtrowanie trzyliniowe
DetailTrilinear.Hint=Włącza filtrowanie trilinearne zalecane użytkownikom ze sprzętem o wyższej wydajności.
DetailWorldDetail.Caption=Detale tekstur
DetailWorldDetail.Hint=Umożliwia zdefiniowanie detali tekstur.

[Tab_GameSettings]
CrosshairNames[0]=Ukryta
CrosshairNames[1]=Krzyż (1)
CrosshairNames[2]=Krzyż (2)
CrosshairNames[3]=Krzyż (3)
CrosshairNames[4]=Krzyż (4)
CrosshairNames[5]=Krzyż (5)
CrosshairNames[6]=Kropka
CrosshairNames[7]=Strzałka
CrosshairNames[8]=Triada (1)
CrosshairNames[9]=Triada (2)
CrosshairNames[10]=Triada (3)
CrosshairNames[11]=Hasz (1)
CrosshairNames[12]=Hasz (2)
CrosshairNames[13]=Okrąg (1)
CrosshairNames[14]=Okrąg (2)
GameAutoAim.Caption=Autocelowanie
GameAutoAim.Hint=Włącz tę opcję, by UT2004 pomagał ci celować (niedostępne w trybie wieloosobowym).
GameCrossHair.Caption=Celownik
GameCrossHair.Hint=Wybierz celownik!
GameDeathMsgs.Caption=Bez wiadomości o zgonach w konsoli
GameDeathMsgs.Hint=Wyłącza wiadomości o zgonach, które pojawiają się w konsoli.
GameDodging.Caption=Uniki
GameDodging.Hint=Jeśli wyłączysz tę opcję, nie będziesz mógł korzystać ze specjalnych uników.
GameHudCrossHairA.Hint=Umożliwia zmianę koloru celownika.
GameHudCrossHairALabel.Caption=Przezroczystość:
GameHudCrossHairB.Hint=Umożliwia zmianę koloru celownika.
GameHudCrossHairBLabel.Caption=Niebieski:
GameHudCrossHairG.Hint=Umożliwia zmianę koloru celownika.
GameHudCrossHairGLabel.Caption=Zielony:
GameHudCrossHairR.Hint=Umożliwia zmianę koloru celownika.
GameHudCrossHairRLabel.Caption=Czerwony:
GameReduceGore.Caption=Ogranicz drastyczność
GameReduceGore.Hint=Włącz tę opcję, by zmniejszyć ilość krwi i wnętrzności na ekranie.
GameScreenFlashes.Caption=Błyski ekranu
GameScreenFlashes.Hint=Wyłącz tę opcję, by ekran nie migał, kiedy zostaniesz trafiony.
GameWeaponBob.Caption=Usztywnienie broni
GameWeaponBob.Hint=Wyłącz kiwanie się broni w dół i w górę w trakcie poruszania.

[Tab_HudSettings]
CrosshairNames[0]=Ukryta
CrosshairNames[1]=Krzyż (1)
CrosshairNames[2]=Krzyż (2)
CrosshairNames[3]=Krzyż (3)
CrosshairNames[4]=Krzyż (4)
CrosshairNames[5]=Krzyż (5)
CrosshairNames[6]=Kropka
CrosshairNames[7]=Strzałka
CrosshairNames[8]=Triada (1)
CrosshairNames[9]=Triada (2)
CrosshairNames[10]=Triada (3)
CrosshairNames[11]=Hasz (1)
CrosshairNames[12]=Hasz (2)
CrosshairNames[13]=Okrąg (1)
CrosshairNames[14]=Okrąg (2)
GameHudMessageCount.Caption=Rozmiar czatu
GameHudMessageOffset.Caption=Wielkość czcionki komunikatów
GameHudMessageScale.Caption=Czcionka w czacie
GameHudOpacity.Hint=Zmienia poziom przejrzystości HUD.
GameHudOpacityLabel.Caption=Przezroczystość interfejsu
GameHudScale.Hint=Zmienia poziom przejrzystości HUD.
GameHudScaleLabel.Caption=Rozmiar interfejsu
GameHudShowEnemyNames.Caption=Pokaż imiona wrogów
GameHudShowPersonalInfo.Caption=Pokaż osobiste informacje
GameHudShowPortraits.Caption=Pokaż wizerunki
GameHudShowScore.Caption=Pokaż punkty
GameHudShowWeaponBar.Caption=Pokaż pasek broni
GameHudShowWeaponInfo.Caption=Pokaż info o broni
GameHudVisible.Caption=Ukryj interfejs
GameHudVisible.Hint=Opcja przełącza rysowanie HUD.

[Tab_IABombingRun]
GoalScoreText=Limit punktowy

[Tab_IACaptureTheFlag]
GoalScoreText=Limit przejęć

[Tab_IADeathMatch]
GoalScoreText=Limit fragów
IARulesAutoAdjustSkill.Caption=Automatycznie dostosuj poziom
IARulesAutoAdjustSkill.Hint=Po włączeniu boty automatycznie dopasują swój poziom do twojego.

[Tab_IADoubleDomination]
GoalScoreText=Limit punktowy

[Tab_IForceSettings]
InputAutoAim.Caption=Autocelowanie
InputAutoAim.Hint=Umożliwia aktywację systemu wspierającego celowanie. System działa wyłącznie w grach dla jednego gracza.
InputAutoSlope.Caption=Autokorekta przechyłu
InputAutoSlope.Hint=Po aktywacji kamera automatycznie podniesienie się w górę/dół, aby skorygować zmianę widoku wywołaną przechyłem.
InputDodgeTime.Caption=Szybkość dwukliku uników
InputDodgeTime.Hint=Umożliwia zdefiniowanie tego, jak szybko należy kliknąć dwukrotnie, by wykonać unik
InputIFDamageEffects.Caption=Efekty obrażeń
InputIFDamageEffects.Hint=Wł./wył. odczuwanie otrzymanych obrażeń.
InputIFGUIEffects.Caption=Efekty GUI
InputIFGUIEffects.Hint=Włącz/wyłącz tę opcję, by poczuć interfejs graficzny.
InputIFPickupEffects.Caption=Efekty podniesienia
InputIFPickupEffects.Hint=Wł./wył. odczuwanie efektów podniesionych przedmiotów.
InputIFWeaponEffects.Caption=Efekty broni
InputIFWeaponEffects.Hint=Wł./wył. odczuwanie efektów broni, z której prowadzisz ostrzał.
InputIForceLabel.Caption=TouchSense Force Feedback
InputInvertMouse.Caption=Odwrócenie osi myszy
InputInvertMouse.Hint=Po aktywacji kierunki osi Y zostaną zamienione.
InputMenuSensitivity.Caption=Czułość myszy (menu)
InputMenuSensitivity.Hint=Umożliwia zdefiniowanie czułości myszy w obrębie menu.
InputMouseAccel.Caption=Ruchy do przyspieszenia
InputMouseAccel.Hint=Umożliwia zdefiniowanie liczby ruchów nim będzie można skorzystać z przyspieszenia.
InputMouseLag.Caption=Redukcja opóźnienia myszy
InputMouseLag.Hint=Umożliwia zredukowanie opóźnienia myszy.
InputMouseSensitivity.Caption=Czułość myszy (w grze)
InputMouseSensitivity.Hint=Umożliwia zdefiniowanie czułości myszy w grze.
InputMouseSmoothStr.Caption=Stopień wygładzenia myszy
InputMouseSmoothStr.Hint=Umożliwia zdefiniowanie stopnia wygładzenia ruchów myszy.
InputMouseSmoothing.Caption=Wygładzenie myszy
InputMouseSmoothing.Hint=Umożliwia automatyczne określenie stopnia wygładzenia myszy.
InputSliderLabel1.Caption=Czułość myszy (w grze)
InputSliderLabel2.Caption=Czułość myszy (menu)
InputUseJoystick.Caption=Użyj joysticka
InputUseJoystick.Hint=Umożliwia grę joystickiem.

[Tab_InstantActionBaseRules]
PercentText=procent
IARulesAllowWeaponThrow.Caption=Pozwól na upuszczanie broni
IARulesAllowWeaponThrow.Hint=Po wybraniu gracz będzie miał możliwość wyrzucenia aktualnej broni.
IARulesBrightSkins.Caption=Jasne skóry
IARulesBrightSkins.Hint=Po wybraniu serwer spowoduje, że skóry graczy będą jaśniejsze niż zwykle.
IARulesFriendlyFireLabel.Caption=Sojuszniczy ogień
IARulesFriendlyFireSlider.Hint=Ta opcja określa, ile obrażeń zadajesz swoim sojusznikom.
IARulesGameSpeedLabel.Caption=Tempo gry
IARulesGameSpeedSlider.Hint=Ta opcja określa, jak szybko rozgrywana jest gra
IARulesGoalScore.Caption=Limit punktowy
IARulesGoalScore.Hint=Gra się zakończy, gdy osiągnięty zostanie ten próg.
IARulesMaxLives.Caption=Maks. liczba żyć
IARulesMaxLives.Hint=Jeśli ta wartość nie jest zerem, zawodnicy będą mogli powracać do gry tylko określoną liczbę razy.
IARulesTimeLimit.Caption=Limit czasowy
IARulesTimeLimit.Hint=Gra zakończy się po określonej liczbie minut.
IARulesTranslocator.Caption=Włącz Translokatory
IARulesTranslocator.Hint=Włącz tę opcję, by dozwolone było użycie Translokatorów.
IARulesWeaponStay.Caption=Broń zostaje
IARulesWeaponStay.Hint=Powoduje, iż na planszy zawsze znajduje się broń.

[Tab_InstantActionBotConfig]
IABotConfigBlueAdd.Hint=Dodaj bota do Niebieskich
IABotConfigBlueList.Hint=Skład Niebieskich
IABotConfigBlueName.Caption=Drużyna niebieska
IABotConfigBlueRemove.Hint=Usuń bota z Niebieskich
IABotConfigCharList.Hint=Wybierz bota, którego chcesz dodać
IABotConfigConfig.Caption=Więcej informacji
IABotConfigConfig.Hint=Więcej informacji o tym bocie
IABotConfigDMName.Caption=Deathmatch
IABotConfigDoConfig.Caption=Personalizuj
IABotConfigDoConfig.Hint=Zmień atrybuty SI dla tego bota
IABotConfigRedAdd.Hint=Dodaj bota do Czerwonych
IABotConfigRedList.Hint=Skład Czerwonych
IABotConfigRedName.Caption=Drużyna czerwona
IABotConfigRedRemove.Hint=Usuń bota z Czerwonych

[Tab_InstantActionMain]
DifficultyLevels[0]=Nowicjusz
DifficultyLevels[1]=Przeciętniak
DifficultyLevels[2]=Doświadczony
DifficultyLevels[3]=Weteran
DifficultyLevels[4]=Zawodowiec
DifficultyLevels[5]=Mistrz
DifficultyLevels[6]=Nadczłowiek
DifficultyLevels[7]=Bóg
MessageNoInfo=Brak informacji!
IAMain_BotCount.Caption=Liczba botów
IAMain_BotCount.Hint=Wybierz liczbę botów, z którymi chcesz grać.
IAMain_BotSkill.Caption=Umiejętności bota
IAMain_BotSkill.Hint=Wybierz poziom botów, z którymi chcesz grać.
IAMain_GameType.Caption=Typ gry:
IAMain_GameType.Hint=Wybierz typ gry, w którą chcesz grać.
IAMain_MapAuthor.Caption=Testy
IAMain_MapList.Hint=Wybierz mapę
IAMain_MapName.Caption=Testy
IAMain_MapPlayers.Caption=Przeznaczona dla 4-8 graczy
IAMain_UseCustomBots.Caption=Użyj własne boty
IAMain_UseCustomBots.Hint=Po włączeniu możesz skorzystać z zakładki botów, by wybrać, z jakimi botami chcesz grać.
IAMain_UseMapBots.Caption=Liczba botów projektanta
IAMain_UseMapBots.Hint=Po włączeniu użyta zostanie odpowiednia liczba botów przypisana przez projektanta do tej mapy.

[Tab_InstantActionMapList]
IAMapListAdd.Caption=Dodaj
IAMapListAdd.Hint=Dodaj mapę do swojej listy map
IAMapListAll.Caption=Dodaj wszystkie
IAMapListAll.Hint=Dodaje wszystkie mapy do listy map
IAMapListAvilLabel.Caption=Lista dostępnych map
IAMapListClear.Caption=Usuń wszystkie
IAMapListClear.Hint=Usuwa wszystkie mapy z listy map
IAMapListCurMapList.Hint=Wybrane mapy
IAMapListDown.Caption=W dół
IAMapListDown.Hint=Przesuwa wybraną mapę w dół listy
IAMapListFullMapList.Hint=Dostępne mapy
IAMapListRemove.Caption=Usuń
IAMapListRemove.Hint=Usuń mapę z listy map
IAMapListSelectedLabel.Caption=Lista wybranych map
IAMapListUp.Caption=Do góry
IAMapListUp.Hint=Przesuwa wybraną mapę w górę listy

[Tab_InstantActionMutators]
IAMutatorAdd.Caption=Dodaj
IAMutatorAdd.Hint=Umożliwia dodanie mutatora do listy dostępnych mutatorów.
IAMutatorAll.Caption=Dodaj wszystkie
IAMutatorAll.Hint=Umożliwia dodanie wszystkich mutatorów do listy dostępnych mutatorów.
IAMutatorAvailList.Hint=Lista dostępnych mutatorów.
IAMutatorAvilLabel.Caption=Dostępne mutatory
IAMutatorClear.Caption=Usuń wszystkie
IAMutatorClear.Hint=Usuwa wszystkie mutatory z listy dostępnych mutatorów.
IAMutatorConfig.Caption=Skonfiguruj mutator
IAMutatorConfig.Hint=Skonfiguruj wybrany mutator
IAMutatorRemove.Caption=Usuń
IAMutatorRemove.Hint=Usuwa wybrany mutator z listy dostępnych mutatorów.
IAMutatorSelectedLabel.Caption=Aktywne mutatory
IAMutatorSelectedList.Hint=Oto mutatory, z którymi będziesz grać.

[Tab_MultiplayerHostMain]
MessageNoInfo=Brak informacji!
IAMain_MapAuthor.Caption=Testy
IAMain_MapPlayers.Caption=Przeznaczona dla 4-8 graczy
MPHostListAdd.Caption=Dodaj
MPHostListAdd.Hint=Dodaj mapę do swojej listy map
MPHostListAll.Caption=Dodaj wszystkie
MPHostListAll.Hint=Dodaje wszystkie mapy do listy map
MPHostListClear.Caption=Usuń wszystkie
MPHostListClear.Hint=Usuwa wszystkie mapy z listy map
MPHostListCurMapList.Hint=Wybierz mapę
MPHostListDown.Caption=W dół
MPHostListDown.Hint=Przesuwa wybraną mapę w dół listy
MPHostListFullMapList.Hint=Wybierz mapę
MPHostListRemove.Caption=Usuń
MPHostListRemove.Hint=Usuń mapę z listy map
MPHostListUp.Caption=Do góry
MPHostListUp.Hint=Przesuwa wybraną mapę w górę listy
MPHostMapName.Caption=Testy
MPHost_GameType.Caption=Typ gry:
MPHost_GameType.Hint=Wybierz typ gry, w którą chcesz grać.

[Tab_MultiplayerHostServerSettings]
MPServerAdminEmail.Caption=Email admina
MPServerAdminEmail.Hint=Adres e-mail administratora zostanie wyświetlony w przeglądarce serwerów.
MPServerAdminName.Caption=Nazwa admina
MPServerAdminName.Hint=Imię administratora zostanie wyświetlone w przeglądarce serwerów.
MPServerAdminPW.Caption=Hasło admina
MPServerAdminPW.Hint=Hasło administratora używane jest przy dołączaniu do serwera jako administrator.
MPServerAdvertise.Caption=Reklamuj serwer
MPServerAdvertise.Hint=Publikuje twój serwer na internetowej przeglądarce serwerów.
MPServerAllowBehindView.Caption=Pozwól na widok z tyłu
MPServerAllowBehindView.Hint=Po wybraniu serwer pozwoli na użycie komendy konsolowej 'behindview 1'
MPServerBalanceTeams.Caption=Zrównoważ drużyny                
MPServerBalanceTeams.Hint=Automatycznie przypisuje drużyny graczom dołączającym do serwera.
MPServerCollectStats.Caption=Zbieraj statystyki graczy
MPServerCollectStats.Hint=Publikuje statystyki graczy z twojego serwera na stronie statystyk UT2004.
MPServerDedicated.Caption=Serwer dedykowany
MPServerDedicated.Hint=Kiedy ta opcja jest włączona, założysz serwer dedykowany.
MPServerLanGame.Caption=Gra LAN
MPServerLanGame.Hint=Optymalizuje użycie sieci osobom grającym w sieci lokalnej.
MPServerMOTD1.Caption=MOTD 1
MPServerMOTD1.Hint=Gracze widzą komunikat dnia, kiedy dołączają do serwera.
MPServerMOTD2.Caption=MOTD 2
MPServerMOTD2.Hint=Gracze widzą komunikat dnia, kiedy dołączają do serwera.
MPServerMOTD3.Caption=MOTD 3
MPServerMOTD3.Hint=Gracze widzą komunikat dnia, kiedy dołączają do serwera.
MPServerMOTD4.Caption=MOTD 4
MPServerMOTD4.Hint=Gracze widzą komunikat dnia, kiedy dołączają do serwera.
MPServerMaxPlayers.Caption=Maks. liczba graczy
MPServerMaxPlayers.Hint=Ogranicza liczbę graczy, którzy mogą jednocześnie dołączyć do serwera.
MPServerMaxSpecs.Caption=Maks. liczba widzów
MPServerMaxSpecs.Hint=Ogranicza liczbę widzów, którzy mogą jednocześnie dołączyć do serwera.
MPServerMinPlayers.Caption=Min. liczba graczy
MPServerMinPlayers.Hint=Jeśli na serwerze jest mniej graczy, niż minimum, dołączą boty.
MPServerName.Caption=Nazwa serwera
MPServerName.Hint=Nazwa serwera zostanie wyświetlona w przeglądarce serwera.
MPServerPW.Caption=Hasło gry