[AdminPlayerList]
; EN: ColumnHeadings=("Player Name","Unique ID","IP")
ColumnHeadings=("Имя игрока","Уникальный ID","IP-адрес")

[Browser_AddBuddy]
; EN: AddBuddyDesc.Caption="Add Buddy"
AddBuddyDesc.Caption="Добавить друга"
; EN: BuddyEntryBox.Caption="Buddy Name: "
BuddyEntryBox.Caption="Имя друга: "
; EN: CancelButton.Caption="CANCEL"
CancelButton.Caption="ОТМЕНА"
; EN: OkButton.Caption="OK"
OkButton.Caption="ОК"

[Browser_BuddyList]
; EN: ColumnHeadings=("Buddy Name")
ColumnHeadings=("Имя друга")

[Browser_IRC]
; EN: SystemLabel="System"
SystemLabel="Система"
; EN: LeaveChannelCaption="LEAVE CHANNEL"
LeaveChannelCaption="ПОКИНУТЬ КАНАЛ"
; EN: LeavePrivateCaptionHead="CLOSE "
LeavePrivateCaptionHead="ЗАКРЫТЬ "
; EN: ChooseNewNickText="Choose A New Chat Nickname"
ChooseNewNickText="Выберите новый никнейм для чата"
; EN: MyBackButton.Caption="BACK"
MyBackButton.Caption="НАЗАД"
; EN: MyChangeNickButton.Caption="CHANGE NICK"
MyChangeNickButton.Caption="ИЗМЕНИТЬ НИКНЕЙМ"

[Browser_IconKey]
; EN: DialogText.Caption="Server Icon Key"
DialogText.Caption="Условные обозначения иконок сервера"
; EN: OkButton.Caption="OK"
OkButton.Caption="ОК"

[Browser_MOTD]
; EN: VersionString="Ver."
VersionString="Вер."
; EN: MyBackButton.Caption="BACK"
MyBackButton.Caption="НАЗАД"
; EN: MyRefreshButton.Caption="REFRESH"
MyRefreshButton.Caption="ПЕРЕЗАГРУЗИТЬ"
; EN: MyUpgradeButton.Caption="UPGRADE"
MyUpgradeButton.Caption="ОБНОВИТЬ"

[Browser_OpenIP]
; EN: CancelButton.Caption="CANCEL"
CancelButton.Caption="ОТМЕНА"
; EN: IpEntryBox.Caption="IP Address: "
IpEntryBox.Caption="IP-адрес: "
; EN: OkButton.Caption="OK"
OkButton.Caption="ОК"
; EN: OpenIPDesc.Caption="Enter New IP Address"
OpenIPDesc.Caption="Введите новый IP-адрес"

[Browser_Page]
; EN: StartQueryString="Querying Master Server"
StartQueryString="Опрашиваю главный сервер"
; EN: AuthFailString="Authentication Failed"
AuthFailString="Во время авторизации произошла ошибка"
; EN: ConnFailString="Connection Failed - Retrying"
ConnFailString="Соединение прервано - повторная попытка"
; EN: ConnTimeoutString="Connection Timed Out"
ConnTimeoutString="Превышено время ожидания"
; EN: QueryCompleteString="Query Complete!"
QueryCompleteString="Опрос завершён!"
; EN: RefreshCompleteString="Refresh Complete!"
RefreshCompleteString="Обновление выполнено!"
; EN: ReadyString="Ready"
ReadyString="Готово"

[Browser_PlayersList]
; EN: ColumnHeadings=("Player Name","Score","Stats ID","Ping")
ColumnHeadings=("Имя игрока","Счёт","Статистика ID","Пинг")

[Browser_Prefs]
; EN: ViewStatsStrings[0]="Any Servers"
ViewStatsStrings[0]="Любой сервер"
; EN: ViewStatsStrings[1]="Only Stats Servers"
ViewStatsStrings[1]="Только сервер со статистикой"
; EN: ViewStatsStrings[2]="No Stats Servers"
ViewStatsStrings[2]="Сервер без статистики"
; EN: MutatorModeStrings[0]="Any Mutators"
MutatorModeStrings[0]="Любые мутаторы"
; EN: MutatorModeStrings[1]="No Mutators"
MutatorModeStrings[1]="Без мутаторов"
; EN: MutatorModeStrings[2]="This Mutator"
MutatorModeStrings[2]="Выбранные мутаторы"
; EN: MutatorModeStrings[3]="Not This Mutator"
MutatorModeStrings[3]="Исключить эти мутаторы"
; EN: WeaponStayStrings[0]="Any Servers"
WeaponStayStrings[0]="Любой сервер"
; EN: WeaponStayStrings[1]="Only Weapon Stay Servers"
WeaponStayStrings[1]="Только сервера без исчезающего оружия"
; EN: WeaponStayStrings[2]="No Weapon Stay Servers"
WeaponStayStrings[2]="Сервера с исчезающим оружием"
; EN: TranslocatorStrings[0]="Any Servers"
TranslocatorStrings[0]="Любой сервер"
; EN: TranslocatorStrings[1]="Only Translocator Servers"
TranslocatorStrings[1]="Только сервера с Транслокаторами"
; EN: TranslocatorStrings[2]="No Translocator Servers"
TranslocatorStrings[2]="Сервера без Транслокаторов"
; EN: CustomQuery.Caption="Custom Query"
CustomQuery.Caption="Настраиваемый опрос"
; EN: FilterTitle.Caption="Server Filtering Options:"
FilterTitle.Caption="Настройка фильтрации сервера:"
; EN: MaxGamespeed.Caption="Max"
MaxGamespeed.Caption="Максимум"
; EN: MinGamespeed.Caption="Game Speed Min"
MinGamespeed.Caption="Минимальная скорость игры"
; EN: MutatorModeCombo.Caption="Mutators"
MutatorModeCombo.Caption="Мутаторы"
; EN: MyBackButton.Caption="BACK"
MyBackButton.Caption="НАЗАД"
; EN: MyKeyButton.Caption="ICON KEY"
MyKeyButton.Caption="ИКОНКИ"
; EN: NoBotServersCheckBox.Caption="No Servers With Bots"
NoBotServersCheckBox.Caption="Сервера без ботов"
; EN: NoEmptyCheckBox.Caption="No Empty Servers"
NoEmptyCheckBox.Caption="Исключить пустые серверы"
; EN: NoFullCheckBox.Caption="No Full Servers"
NoFullCheckBox.Caption="Исключить полные серверы"
; EN: NoPasswdCheckBox.Caption="No Passworded Servers"
NoPasswdCheckBox.Caption="Исключить сервера с паролем"
; EN: OnlyStandardCheckBox.Caption="Only Standard Servers"
OnlyStandardCheckBox.Caption="Только стандартные серверы"
; EN: StatsViewCombo.Caption="Stats Servers"
StatsViewCombo.Caption="Сервера со статистикой"
; EN: TranslocatorCombo.Caption="Translocator"
TranslocatorCombo.Caption="Транслокатор"
; EN: WeaponStayCombo.Caption="Weapon Stay"
WeaponStayCombo.Caption="Оружие не исчезает"

[Browser_RulesList]
; EN: TrueString="Enabled"
TrueString="Активно"
; EN: FalseString="Disabled"
FalseString="Отключено"
; EN: ServerModeString="Server Mode"
ServerModeString="Режим сервера"
; EN: DedicatedString="Dedicated"
DedicatedString="Выделенный"
; EN: NonDedicatedString="Non-Dedicated"
NonDedicatedString="Локальный"
; EN: AdminNameString="Server Admin"
AdminNameString="Администратор сервера"
; EN: AdminEmailString="Admin Email"
AdminEmailString="Почта администратора"
; EN: PasswordString="Requires Password"
PasswordString="Требуется пароль"
; EN: GameStatsString="UT2004 Stats"
GameStatsString="Статистика UT2004"
; EN: GameSpeedString="Game Speed"
GameSpeedString="Скорость игры"
; EN: MutatorString="Mutator"
MutatorString="Мутатор"
; EN: BalanceTeamsString="Bots Balance Teams"
BalanceTeamsString="Сбалансировать команды ботами"
; EN: PlayersBalanceTeamsString="Balance Teams"
PlayersBalanceTeamsString="Сбалансировать команды"
; EN: FriendlyFireString="Friendly Fire"
FriendlyFireString="Огонь по своим"
; EN: GoalScoreString="Goal Score"
GoalScoreString="Лимит очков"
; EN: TimeLimitString="Time Limit"
TimeLimitString="Лимит времени"
; EN: MinPlayersString="Minimum Players (bots)"
MinPlayersString="Минимум игроков (боты)"
; EN: TranslocatorString="Translocator"
TranslocatorString="Транслокатор"
; EN: WeaponStayString="Weapons Stay"
WeaponStayString="Оружие не исчезает"
; EN: ColumnHeadings=("Setting","Value")
ColumnHeadings=("Настройки","Значение")

[Browser_ServerListPageBase]
; EN: AddFavoriteButton.Caption="ADD FAVORITE"
AddFavoriteButton.Caption="ДОБАВИТЬ В ИЗБРАННОЕ"
; EN: BackButton.Caption="BACK"
BackButton.Caption="НАЗАД"
; EN: JoinButton.Caption="JOIN"
JoinButton.Caption="ПРИСОЕДИНИТЬСЯ"
; EN: RefreshButton.Caption="REFRESH LIST"
RefreshButton.Caption="ОБНОВИТЬ СПИСОК"
; EN: SpectateButton.Caption="SPECTATE"
SpectateButton.Caption="НАБЛЮДАТЬ"

[Browser_ServerListPageBuddy]
; EN: AddBuddyCaption="ADD BUDDY"
AddBuddyCaption="ДОБАВИТЬ ДРУГА"
; EN: RemoveBuddyCaption="REMOVE BUDDY"
RemoveBuddyCaption="УДАЛИТЬ ДРУГА"

[Browser_ServerListPageFavorites]
; EN: RemoveFavoriteCaption="REMOVE FAVORITE"
RemoveFavoriteCaption="УДАЛИТЬ ИЗ ИЗБРАННОГО"
; EN: AddIPCaption="ADD IP"
AddIPCaption="ДОБАВИТЬ IP"
; EN: RePingCaption="RE-PING LIST"
RePingCaption="ПЕРЕПРОВЕРИТЬ СВЯЗЬ"

[Browser_ServerListPageMS]
; EN: QueryFinHead="Query Complete! Received: "
QueryFinHead="Опрос завершён! Получено: "
; EN: QueryFinTail=" Servers"
QueryFinTail=" серверов"
; EN: PingRecvString="Pinging Servers"
PingRecvString="Проверяю отклики серверов"
; EN: MustUpgradeString="Upgrade available. Please refresh the News page."
MustUpgradeString="Доступно новое обновление. Пожалуйста, перезапустите страницу с новостями."
; EN: RefreshFinHead="Pinging Complete! "
RefreshFinHead="Отклики получены! "
; EN: RefreshFinMid=" Servers, "
RefreshFinMid=" серверов, "
; EN: RefreshFinTail=" Players"
RefreshFinTail=" игроков"
; EN: RePingServersCaption="RE-PING LIST"
RePingServersCaption="ПОВТОРНЫЙ ОПРОС СПИСКА"
; EN: RefreshCaption="REFRESH LIST"
RefreshCaption="ОБНОВИТЬ СПИСОК"

[Browser_ServerListPageMSCustom]
; EN: MyGameTypeLabel.Caption="Game Type"
MyGameTypeLabel.Caption="Режим игры"

[Browser_ServersList]
; EN: IconDescriptions=("Passworded","Stats Enabled","Latest Version","Listen Server","Instagib","Standard Server","UT Classic")
IconDescriptions=("Защищён паролем","Статистика вкл.","Актуальная версия","Сервер-клиент","Мгновенная смерть (InstaGib)","Стандартный сервер","Классический UT")
; EN: ColumnHeadings=(,"Server Name","Map","Players","Ping")
ColumnHeadings=(,"Название сервера","Карта","Игроки","Пинг")

[DefaultCrosshairs]
; EN: Crosshair=((FriendlyName="Cross (1)"),(FriendlyName="Cross (2)"),(FriendlyName="Cross (3)"),(FriendlyName="Cross (4)"),(FriendlyName="Cross (5)"),(FriendlyName="Dot"),(FriendlyName="Pointer"),(FriendlyName="Triad (1)"),(FriendlyName="Triad (2)"),(FriendlyName="Triad (3)"),(FriendlyName="Bracket (1)"),(FriendlyName="Bracket (2)"),(FriendlyName="Circle (1)"),(FriendlyName="Circle (2)"))
Crosshair=((FriendlyName="Перекрестие (1)"),(FriendlyName="Перекрестие (2)"),(FriendlyName="Перекрестие (3)"),(FriendlyName="Перекрестие (4)"),(FriendlyName="Перекрестие (5)"),(FriendlyName="Точка"),(FriendlyName="Указатель"),(FriendlyName="Триада (1)"),(FriendlyName="Триада (2)"),(FriendlyName="Триада (3)"),(FriendlyName="Квадратный (1)"),(FriendlyName="Квадратный (2)"),(FriendlyName="Круглый (1)"),(FriendlyName="Круглый (2)"))

[ExtendedConsole]
; EN: AddedCurrentHead="Added Server:"
AddedCurrentHead="Добавлен сервер:"
; EN: AddedCurrentTail="To Favorites!"
AddedCurrentTail="в избранное!"
; EN: ServerFullMsg="Server is now full"
ServerFullMsg="Сервер заполнен"
; EN: SMStateName[0]="Speech Menu"
SMStateName[0]="Меню общения"
; EN: SMStateName[1]="Voice Chat"
SMStateName[1]="Голосовой чат"
; EN: SMStateName[2]="Acknowledge"
SMStateName[2]="Подтверждение"
; EN: SMStateName[3]="Friendly Fire"
SMStateName[3]="Огонь по своим"
; EN: SMStateName[4]="Order"
SMStateName[4]="Приказ"
; EN: SMStateName[5]="Other"
SMStateName[5]="Другое"
; EN: SMStateName[6]="Taunt"
SMStateName[6]="Насмешки"
; EN: SMStateName[7]="Taunt Anim"
SMStateName[7]="Анимации насмешек"
; EN: SMStateName[8]="Player Select"
SMStateName[8]="Выбор игрока"
; EN: SMChannelOptions[0]="Join"
SMChannelOptions[0]="Присоединиться"
; EN: SMChannelOptions[1]="Leave"
SMChannelOptions[1]="Покинуть"
; EN: SMChannelOptions[2]="Talk"
SMChannelOptions[2]="Говорить"
; EN: SMAllString="[ALL]"
SMAllString="[ВСЕ]"
; EN: SMMoreString="[MORE]"
SMMoreString="[БОЛЬШЕ]"

[GUIController]
; EN: DesignModeHints=((Key=" Key",Description="                                Description"),(Key=" (F1)",Description="                                View this help screen"),(Key=" Ctrl + Alt + D",Description="                      Toggles design mode"),(Key=" Ctrl + Alt + E",Description="                      Toggles property editor mode"),(Key=" [Ctrl +] H",Description="                          Toggles active/focused info"),(Key=" [Ctrl +] I",Description="                          Toggle interactive mode"),(Key=" [Ctrl +] P",Description="                          Toggles full MenuOwner chains for active/focused"),(Key=" [Ctrl +] C",Description="                          Copy MoveControl position to clipboard"),(Key=" [Ctrl +] X",Description="                          Export MoveControl to clipboard"),(Key=" [Ctrl +] U",Description="                          Refresh the property window in the designer"),(Key=" [Ctrl +] Up/Down/Left/Right",Description="         Reposition MoveControl using arrow keys"),(Key=" [Ctrl +] +/-",Description="                        Resize MoveControl vertically"),(Key=" [Ctrl +] Num+/Num-",Description="                  Resize selected component horizontally"),(Key=" [Ctrl +] WheelUp",Description="                    Set MoveControl to MoveControl's menuowner"),(Key=" [Ctrl +] WheenDown",Description="                  Set MoveControl to MoveControl's focused control"),(Key=" [(Ctrl + Alt) +] MouseX/Y+LMouse",Description="    Reposition MoveControl using mouse"),(Key=" (Shift)",Description="                             Hides all design mode indicators"),(Key=" (Ctrl + Alt)",Description="                        View focus chain"),(Key=" [Ctrl +] Tab",Description="                        Select new MoveControl"),(Key=" [Ctrl +] LMouse",Description="                     Select new MoveControl"))
DesignModeHints=((Key=" клавиша",Description="                                описание"),(Key=" (F1)",Description="                                Просмотр справки"),(Key=" Ctrl + Alt + D",Description="                      Переключение режима редактирования"),(Key=" Ctrl + Alt + E",Description="                      Переключение режима редактирования собственности"),(Key=" [Ctrl +] H",Description="                          Переключение информации между активной/в фокусе"),(Key=" [Ctrl +] I",Description="                          Переключение интерактивного режима"),(Key=" [Ctrl +] P",Description="                          Переключение иерархии MenuOwner для объектов в статусе активный/в фокусе"),(Key=" [Ctrl +] C",Description="                          Копировать позицию MoveControl в буфер обмена"),(Key=" [Ctrl +] X",Description="                          Экспортировать MoveControl в буфер обмена"),(Key=" [Ctrl +] U",Description="                          Обновить окно свойств"),(Key=" [Ctrl +] Вверх/Вниз/Влево/Вправо",Description="         Переместить MoveControl с помощью клавиш"),(Key=" [Ctrl +] +/-",Description="                        Изменить размер MoveControl по вертикали"),(Key=" [Ctrl +] Num+/Num-",Description="                  Изменить размер MoveControl по горизонтали"),(Key=" [Ctrl +] WheelUp",Description="                    Привязать MoveControl к объекту MenuOwner"),(Key=" [Ctrl +] WheenDown",Description="                  Привязать MoveControl к элементу в фокусе"),(Key=" [(Ctrl + Alt) +] MouseX/Y+LMouse",Description="    Переместить MoveControl с помощью мыши"),(Key=" (Shift)",Description="                             Скрыть все индикаторы дизайнера"),(Key=" (Ctrl + Alt)",Description="                        Отобразить иерархию в фокусе"),(Key=" [Ctrl +] Tab",Description="                        Выбрать новый MoveControl"),(Key=" [Ctrl +] LMouse",Description="                     Выбрать новый MoveControl"))

[GUIQuestionPage]
; EN: ButtonNames=("Ok","Cancel","Retry","Continue","Yes","No","Abort","Ignore")
ButtonNames=("Ок","Отменить","Повторить","Продолжить","Да","Нет","Прервать","Игнорировать")

[HudBTeamDeathMatch]
; EN: LinkEstablishedMessage="LINK ESTABLISHED"
LinkEstablishedMessage="СВЯЗЬ УСТАНОВЛЕНА"

[HudBase]
InstructionFontName=UT2003Fonts.jFontMono800x600
; EN: LevelActionLoading="LOADING..."
LevelActionLoading="ЗАГРУЗКА..."
; EN: LevelActionPaused="PAUSED"
LevelActionPaused="ПАУЗА"
LevelActionFontName=UT2003Fonts.FontMedium
; EN: WonMatchPostFix=" won the match!"
WonMatchPostFix=" победила в матче!"
; EN: WaitingToSpawn="Press [Fire] to join the match!"
WaitingToSpawn="Нажмите [Cтрельба], чтобы присоединиться к матчу!"
; EN: AtMenus="Press [ESC] to close menu"
AtMenus="Нажмите [Esc] для закрытия меню"
; EN: YouveWonTheMatch="You've won the match!"
YouveWonTheMatch="Вы победили в матче!"
; EN: YouveLostTheMatch="You've lost the match."
YouveLostTheMatch="Вы потерпели поражение в матче."
; EN: NowViewing="Now viewing"
NowViewing="Наблюдение за"
; EN: ScoreText="Score"
ScoreText="Счёт"
; EN: InitialViewingString="Press Fire to View a different Player"
InitialViewingString="Нажмите [Стрельба] для наблюдения за другим игроком"
ProgressFontName=UT2003Fonts.FontMedium
FontArrayNames[0]=UT2003Fonts.FontEurostile37
FontArrayNames[1]=UT2003Fonts.FontEurostile29
FontArrayNames[2]=UT2003Fonts.FontEurostile24
FontArrayNames[3]=UT2003Fonts.FontEurostile21
FontArrayNames[4]=UT2003Fonts.FontEurostile17
FontArrayNames[5]=UT2003Fonts.FontEurostile14
FontArrayNames[6]=UT2003Fonts.FontEurostile12
FontArrayNames[7]=UT2003Fonts.FontEurostile9
FontArrayNames[8]=UT2003Fonts.FontSmallText

[HudCTeamDeathMatch]
; EN: LinkEstablishedMessage="LINK ESTABLISHED"
LinkEstablishedMessage="СВЯЗЬ УСТАНОВЛЕНА"

[IRCLink]
; EN: InvalidAddressText="Invalid server address, aborting."
InvalidAddressText="Некорректный адрес сервера, идёт отмена."
; EN: ErrorBindingText="Error binding local port, aborting."
ErrorBindingText="Ошибка привязки локального порта, идёт отмена."
; EN: ResolveFailedText="Failed to resolve server address, aborting."
ResolveFailedText="Не удалось разрешить адрес сервера, идёт отмена."
; EN: ConnectedText="Connected."
ConnectedText="Подключено."
; EN: ConnectingToText="Connecting to"
ConnectingToText="Подключение к"
; EN: TimeOutError="Timeout connecting to server."
TimeOutError="Превышено время ожидания сервера."
; EN: InviteString="invites you to join"
InviteString="приглашает вас присоединиться"
; EN: NickInUseText="Nickname Already In Use"
NickInUseText="Имя уже используется"
; EN: NickInvalidText="Nickname Is Invalid"
NickInvalidText="Недопустимое имя пользователя"

[IRC_NewNick]
; EN: NewNickEntry.Caption="New Nickname: "
NewNickEntry.Caption="Новый никнейм: "
; EN: OkButton.Caption="OK"
OkButton.Caption="ОК"

[IRC_Page]
; EN: HasLeftText="has left"
HasLeftText="вышел"
; EN: HasJoinedText="has joined"
HasJoinedText="присоединился"
; EN: WasKickedByText="was kicked by"
WasKickedByText="был исключён"
; EN: NowKnownAsText="is now known as"
NowKnownAsText="также известный как"
; EN: QuitText="Quit"
QuitText="Выход"
; EN: SetsModeText="sets mode"
SetsModeText="устанавливает режим"
; EN: NewTopicText="Topic"
NewTopicText="Тема"

[IRC_System]
; EN: NotInAChannelText="Not in a channel!"
NotInAChannelText="Не в канале!"
; EN: KickedFromText="You were kicked from"
KickedFromText="Вас исключили из"
; EN: ByText="by"
ByText="пользователем"
; EN: IsAwayText="is away"
IsAwayText="отошёл"
; EN: ConnectText="CONNECT"
ConnectText="ПРИСОЕДИНИТЬСЯ"
; EN: DisconnectText="DISCONNECT"
DisconnectText="ОТКЛЮЧИТЬСЯ"
; EN: MyChannelLabel.Caption="Channel"
MyChannelLabel.Caption="Канал"
; EN: MyJoinChannelButton.Caption="JOIN CHANNEL"
MyJoinChannelButton.Caption="ПРИСОЕДИНИТЬСЯ К КАНАЛУ"
; EN: MyRemoveChannelButton.Caption="REMOVE CHANNEL"
MyRemoveChannelButton.Caption="УДАЛИТЬ КАНАЛ"
; EN: MyRemoveServerButton.Caption="REMOVE SERVER"
MyRemoveServerButton.Caption="УДАЛИТЬ СЕРВЕР"
; EN: MyServerLabel.Caption="Server"
MyServerLabel.Caption="Сервер"

[JoeTest]
; EN: TestButton1.Caption="Close Window"
TestButton1.Caption="Закрыть окно"
; EN: TitleText.Caption="Joe's Amazing Test GUI"
TitleText.Caption="Невероятный тест GUI Джо"

[JoeTestPanelA]
; EN: TestButtonA.Caption="Wow"
TestButtonA.Caption="Вау"
; EN: TestButtonB.Caption="Damn"
TestButtonB.Caption="Блин"

[ScoreBoardDeathMatch]
; EN: RankText="RANK"
RankText="РАНГ"
; EN: PlayerText="PLAYER"
PlayerText="ИГРОК"
; EN: PointsText="SCORE"
PointsText="СЧЁТ"
; EN: TimeText="TIME:"
TimeText="ВРЕМЯ:"
; EN: PingText="PING:"
PingText="ПИНГ:"
; EN: PLText="P/L:"
PLText="П/П:"
; EN: DeathsText="DEATHS"
DeathsText="СМЕРТЕЙ"
; EN: AdminText="ADMIN"
AdminText="АДМИН"
; EN: NetText="NET"
NetText="СЕТЬ"
; EN: FooterText="Elapsed Time:"
FooterText="Прошло времени:"
; EN: MatchIDText="UT2004 Stats Match ID"
MatchIDText="ID матча в статистике UT2004"
; EN: OutText="OUT"
OutText="ВЫБЫЛ"
; EN: OutFireText="   You are OUT. [Fire] to view other players."
OutFireText="   вы ВЫБЫЛИ. Нажмите [Стрельба] для наблюдения за другими игроками."
; EN: ReadyText="READY"
ReadyText="ГОТОВ"
; EN: NotReadyText="NOT RDY"
NotReadyText="НЕ ГОТОВ"
; EN: SkillLevel[0]="NOVICE"
SkillLevel[0]="НОВИЧОК"
; EN: SkillLevel[1]="AVERAGE"
SkillLevel[1]="ОБЫЧНЫЙ"
; EN: SkillLevel[2]="EXPERIENCED"
SkillLevel[2]="ОПЫТНЫЙ"
; EN: SkillLevel[3]="SKILLED"
SkillLevel[3]="ЭКСПЕРТ"
; EN: SkillLevel[4]="ADEPT"
SkillLevel[4]="АДЕПТ"
; EN: SkillLevel[5]="MASTERFUL"
SkillLevel[5]="МАСТЕР"
; EN: SkillLevel[6]="INHUMAN"
SkillLevel[6]="НЕЛЮДЬ"
; EN: SkillLevel[7]="GODLIKE"
SkillLevel[7]="БОГОПОДОБНЫЙ"
; EN: MaxLives="MAX LIVES:"
MaxLives="МАКСИМУМ ВОЗРОЖДЕНИЙ:"
; EN: FragLimit="FRAG LIMIT:"
FragLimit="ЛИМИТ УБИЙСТВ:"
; EN: FPH="PPH"
FPH="О/Ч"
; EN: GameType="GAME"
GameType="ИГРА"
; EN: MapName=" in "
MapName=" на "
; EN: Restart="   You were killed. Press Fire to respawn!"
Restart="   Вас убили! Нажмите [Стрельба] для возрождения!"
; EN: Continue=" Press [Fire] to continue!"
Continue="Нажмите [Стрельба] для продолжения!"
; EN: Ended="The match has ended."
Ended="Матч завершён!"
; EN: TimeLimit="REMAINING TIME:"
TimeLimit="ОСТАВШЕЕСЯ ВРЕМЯ:"
Spacer=" "

[ScoreBoardTeamDeathMatch]
; EN: FragLimit="SCORE LIMIT:"
FragLimit="ЛИМТ ОЧКОВ:"

[ServerBrowser]
; EN: MutantTypeName="Mutant"
MutantTypeName="Мутация"
; EN: InvasionTypeName="Invasion"
InvasionTypeName="Вторжение"
; EN: LMSTypeName="Last Man Standing"
LMSTypeName="Последний выживший"
MutantType="xMutantGame"
InvasionType="Invasion"
LMSType="xLastManStanding"
; EN: MyBRServerListPage.PageCaption="Bombing Run"
MyBRServerListPage.PageCaption="Бомбовый забег"
; EN: MyBuddiesPage.PageCaption="Buddies"
MyBuddiesPage.PageCaption="Друзья"
; EN: MyCTFServerListPage.PageCaption="CTF"
MyCTFServerListPage.PageCaption="Захват флага"
; EN: MyCustomServerListPage.PageCaption="Custom"
MyCustomServerListPage.PageCaption="Пользовательский"
; EN: MyDMServerListPage.PageCaption="DM"
MyDMServerListPage.PageCaption="Бой насмерть"
; EN: MyDomServerListPage.PageCaption="Double Dom"
MyDomServerListPage.PageCaption="Двойное доминирование"
; EN: MyFavoritesPage.PageCaption="Favorites"
MyFavoritesPage.PageCaption="Избранное"
; EN: MyIRCPage.PageCaption="Chat"
MyIRCPage.PageCaption="Чат"
; EN: MyLANPage.PageCaption="LAN"
MyLANPage.PageCaption="LAN"
; EN: MyMOTDPage.PageCaption="News"
MyMOTDPage.PageCaption="Новости"
; EN: MyPrefsPage.PageCaption="Filter"
MyPrefsPage.PageCaption="Фильтр"
; EN: MyTDMServerListPage.PageCaption="Team DM"
MyTDMServerListPage.PageCaption="Командный бой насмерть"
; EN: ServerBrowserHeader.Caption="Server Browser"
ServerBrowserHeader.Caption="Список серверов"

[Tab_AdminPlayerList]
; EN: AdminPlayerBan.Caption="Ban"
AdminPlayerBan.Caption="Бан"
; EN: AdminPlayerBan.Hint="Ban this player"
AdminPlayerBan.Hint="Заблокировать игрока"
; EN: AdminPlayerKick.Caption="Kick"
AdminPlayerKick.Caption="Выгнать"
; EN: AdminPlayerKick.Hint="Kick this player"
AdminPlayerKick.Hint="Исключить игрока"

[Tab_AudioSettings]
; EN: AudioModes[0]="Software 3D Audio"
AudioModes[0]="Программный 3D-звук"
; EN: AudioModes[1]="Hardware 3D Audio"
AudioModes[1]="Аппаратный 3D-звук"
; EN: AudioModes[2]="Hardware 3D Audio + EAX"
AudioModes[2]="Аппаратный 3D-звук + EAX"
; EN: AudioModes[3]="Safe Mode"
AudioModes[3]="Безопасный режим"
; EN: VoiceModes[0]="All"
VoiceModes[0]="Все"
; EN: VoiceModes[1]="No auto-taunts"
VoiceModes[1]="Без автонасмешек"
; EN: VoiceModes[2]="No taunts"
VoiceModes[2]="Без насмешек"
; EN: VoiceModes[3]="None"
VoiceModes[3]="Ничего"
; EN: AnnounceModes[0]="None"
AnnounceModes[0]="Ничего"
; EN: AnnounceModes[1]="Minimal"
AnnounceModes[1]="Минимально"
; EN: AnnounceModes[2]="All"
AnnounceModes[2]="Все"
; EN: AudioAnnounce.Caption="Announcements"
AudioAnnounce.Caption="Оповещения"
; EN: AudioAnnounce.Hint="Adjusts the amount of in-game announcements."
AudioAnnounce.Hint="Изменяет количество внутриигровых оповещений."
; EN: AudioAnnouncerPack.Caption="Announcer Voice"
AudioAnnouncerPack.Caption="Голос диктора"
; EN: AudioAnnouncerPack.Hint="Select the Announcer for tonight's game."
AudioAnnouncerPack.Hint="Выберите ведущего сегодняшней игры."
; EN: AudioAutoTaunt.Caption="Auto-Taunt"
AudioAutoTaunt.Caption="Автонасмешки"
; EN: AudioAutoTaunt.Hint="Enables your in-game player to automatically taunt opponents."
AudioAutoTaunt.Hint="Ваш персонаж будет самостоятельно провоцировать противников."
; EN: AudioEffectsVolumeLabel.Caption="Effects Volume"
AudioEffectsVolumeLabel.Caption="Громкость эффектов"
; EN: AudioEffectsVolumeSlider.Hint="Changes the volume of all in game sound effects."
AudioEffectsVolumeSlider.Hint="Изменяет громкость всех внутриигровых эффектов."
; EN: AudioLowDetail.Caption="Low Sound Detail"
AudioLowDetail.Caption="Снизить качество звука"
; EN: AudioLowDetail.Hint="Lowers quality of sound."
AudioLowDetail.Hint="Понижает качества звука для маломощных ПК или медленных интернет соединений."
; EN: AudioMatureTaunts.Caption="Mature Taunts"
AudioMatureTaunts.Caption="Насмешки без цензуры"
; EN: AudioMatureTaunts.Hint="Enables off-color commentary."
AudioMatureTaunts.Hint="Разрешает комментирование непристойными фразами."
; EN: AudioMessageBeep.Caption="Message Beep"
AudioMessageBeep.Caption="Звуковое оповещение сообщений"
; EN: AudioMessageBeep.Hint="Enables a beep when receiving a text message from other players."
AudioMessageBeep.Hint="Добавляет звук при получении сообщения от другого игрока."
; EN: AudioMode.Caption="Audio Mode"
AudioMode.Caption="Режим звука"
; EN: AudioMode.Hint="Changes the audio system mode."
AudioMode.Hint="Изменяет системный режим звука."
; EN: AudioMusicVolumeLabel.Caption="Music Volume"
AudioMusicVolumeLabel.Caption="Громкость музыки"
; EN: AudioMusicVolumeSlider.Hint="Changes the volume of the background music."
AudioMusicVolumeSlider.Hint="Изменяет громкость фоновой музыки."
; EN: AudioPlayVoices.Caption="Play Voices"
AudioPlayVoices.Caption="Голоса"
; EN: AudioPlayVoices.Hint="Defines the types of voice messages to play."
AudioPlayVoices.Hint="Определяет типы голосовых сообщений для проигрывания."
; EN: AudioReverseStereo.Caption="Reverse Stereo"
AudioReverseStereo.Caption="Инвертировать стерео"
; EN: AudioReverseStereo.Hint="Reverses the left and right audio channels."
AudioReverseStereo.Hint="Меняет местами левый и правый аудиоканалы."
; EN: AudioVoiceVolumeLabel.Caption="Announcer Volume"
AudioVoiceVolumeLabel.Caption="Громкость диктора"
; EN: AudioVoiceVolumeSlider.Hint="Changes the volume of all in game voice messages."
AudioVoiceVolumeSlider.Hint="Изменяет громкость всех голосовых сообщений в игре."

[Tab_ControlSettings]
; EN: Bindings=((KeyLabel="Movement"),(KeyLabel="Forward"),(KeyLabel="Backward"),(KeyLabel="Strafe Left"),(KeyLabel="Strafe Right"),(KeyLabel="Jump"),(KeyLabel="Walk"),(KeyLabel="Crouch"),(KeyLabel="Strafe Toggle"),(KeyLabel="Looking"),(KeyLabel="Turn Left"),(KeyLabel="Turn Right"),(KeyLabel="Look Up"),(KeyLabel="Look Down"),(KeyLabel="Center View"),(KeyLabel="Weapons"),(KeyLabel="Fire"),(KeyLabel="Alt-Fire"),(KeyLabel="Throw Weapon"),(KeyLabel="Best Weapon"),(KeyLabel="Next Weapon"),(KeyLabel="Prev Weapon"),(KeyLabel="Last Weapon"),(KeyLabel="Weapon Selection"),(KeyLabel="Super Weapon"),(KeyLabel="Shield Gun"),(KeyLabel="Assault Rifle"),(KeyLabel="Bio Rifle"),(KeyLabel="Shock Rifle"),(KeyLabel="Link Gun"),(KeyLabel="Minigun"),(KeyLabel="Flak Cannon"),(KeyLabel="Rocket Launcher"),(KeyLabel="Lightning Rifle"),(KeyLabel="Translocator"),(KeyLabel="Communication"),(KeyLabel="Say"),(KeyLabel="Team Say"),(KeyLabel="Speech Menu"),(KeyLabel="Taunts"),(KeyLabel="Pelvic Thrust"),(KeyLabel="Ass Smack"),(KeyLabel="Throat Cut"),(KeyLabel="Hud"),(KeyLabel="Grow Hud"),(KeyLabel="Shrink Hud"),(KeyLabel="Miscellaneous"),(KeyLabel="Pause"),(KeyLabel="Screenshot"),(KeyLabel="Menu"),(KeyLabel="ScoreBoard"),(KeyLabel="ScoreBoard Toggle"),(KeyLabel="In Game Chat"),(KeyLabel="Server Info"))
Bindings=((KeyLabel="Передвижение"),(KeyLabel="Вперёд"),(KeyLabel="Назад"),(KeyLabel="Движение влево"),(KeyLabel="Движение вправо"),(KeyLabel="Прыжок"),(KeyLabel="Ходьба"),(KeyLabel="Присед"),(KeyLabel="Переключение движения боком"),(KeyLabel="Взгляд"),(KeyLabel="Повернуться налево"),(KeyLabel="Повернуться направо"),(KeyLabel="Посмотреть вверх"),(KeyLabel="Посмотреть вниз"),(KeyLabel="Центрировать взгляд"),(KeyLabel="Оружие"),(KeyLabel="Стрельба"),(KeyLabel="Альт. режим стрельбы"),(KeyLabel="Выбросить оружие"),(KeyLabel="Лучшее оружие"),(KeyLabel="След. оружие"),(KeyLabel="Пред. оружие"),(KeyLabel="Последнее исп. оружие"),(KeyLabel="Выбор оружия"),(KeyLabel="Супероружие"),(KeyLabel="Щитовая пушка"),(KeyLabel="Штурмовая винтовка"),(KeyLabel="Биовинтовка"),(KeyLabel="Шоковая винтовка"),(KeyLabel="Связующая пушка"),(KeyLabel="Миниган"),(KeyLabel="Осколочная пушка"),(KeyLabel="Ракетная установка"),(KeyLabel="Громобой"),(KeyLabel="Транслокатор"),(KeyLabel="Общение"),(KeyLabel="Сказать"),(KeyLabel="Сказать команде"),(KeyLabel="Меню общения"),(KeyLabel="Насмешки"),(KeyLabel="Вращение таза"),(KeyLabel="Шлепок по заднице"),(KeyLabel="Перерезать глотку"),(KeyLabel="Интерфейс (HUD)"),(KeyLabel="Увеличить размер интерфейса"),(KeyLabel="Уменьшить размер интерфейса"),(KeyLabel="Прочее"),(KeyLabel="Пауза"),(KeyLabel="Снимок экрана"),(KeyLabel="Меню"),(KeyLabel="Таблица результатов"),(KeyLabel="Перекл. таблицы результатов"),(KeyLabel="Внутриигровой чат"),(KeyLabel="Информация о сервере"))
; EN: Labels=("Movement","Forward","Backward","Strafe Left","Strafe Right","Jump","Walk","Crouch","Strafe Toggle","Looking","Turn Left","Turn Right","Look Up","Look Down","Center View","Weapons","Fire","Alt-Fire","Throw Weapon","Best Weapon","Next Weapon","Prev Weapon","Last Weapon","Weapon Selection","Super Weapon","Shield Gun","Assault Rifle","Bio Rifle","Shock Rifle","Link Gun","Minigun","Flak Cannon","Rocket Launcher","Lightning Rifle","Translocator","Communication","Say","Team Say","Speech Menu","Taunts","Pelvic Thrust","Ass Smack","Throat Cut","Hud","Grow Hud","Shrink Hud","Miscellaneous","Pause","Screenshot","Menu","ScoreBoard","ScoreBoard Toggle","In Game Chat","Server Info")